3 
4 
5  00 15 29 36 44 51 59 
6  06 13 21 28 36 43 51 58 
7  06 13 21 28 36 43 51 58 
8  06 13 21 28 36 43 51 58 
9  06 13 21 28 36 43 51 58 
10  06 13 21 28 36 43 51 58 
11  06 13 21 28 36 43 51 58 
12  06 13 21 28 36 43 51 58 
13  06 13 21 28 36 43 51 58 
14  06 13 21 28 35 42 51 58 
15  06 13 21 28 36 43 51 58 
16  06 13 21 28 36 43 51 58 
17  06 13 21 28 36 43 51 58 
18  06 13 21 28 35 42 50 57 
19  04 12 19 27 34 42 49 
20  04 19 34 51 
21  06 21 36 51 
22  06 21 36 
23 
